* ENCODING=ISO-8859-1
NAME          CPLEX
ROWS
 N  obj1    
 G  c1      
 G  c2      
 G  c3      
 G  c4      
 G  c5      
 G  c6      
 G  c7      
 G  c8      
 G  c9      
 G  c10     
 G  c11     
 G  c12     
 G  c13     
 G  c14     
 G  c15     
 G  c16     
 G  c17     
 G  c18     
 G  c19     
 G  c20     
 G  c21     
 G  c22     
 G  c23     
 G  c24     
 G  c25     
 G  c26     
 G  c27     
 G  c28     
 G  c29     
 G  c30     
 G  c31     
 G  c32     
 G  c33     
 G  c34     
 G  c35     
COLUMNS
    MARK0000  'MARKER'                 'INTORG'
    x1        obj1                            1
    x1        c1                            720
    x1        c27                           270
    x1        c30                           580
    x1        c33                           638
    x2        obj1                            1
    x2        c24                           672
    x2        c26                           748
    x2        c31                           833
    x2        c35                           580
    x3        obj1                            1
    x3        c2                            236
    x3        c5                            757
    x4        obj1                            1
    x4        c22                           744
    x4        c29                           180
    x5        obj1                            1
    x5        c2                            472
    x5        c4                            642
    x5        c9                            194
    x5        c17                           791
    x5        c34                           172
    x6        obj1                            1
    x6        c6                            381
    x6        c7                            837
    x6        c14                           506
    x6        c24                           177
    x7        obj1                            1
    x7        c3                            878
    x7        c29                           676
    x8        obj1                            1
    x8        c11                           528
    x9        obj1                            1
    x9        c1                            419
    x9        c7                            651
    x9        c28                           848
    x9        c31                           605
    x9        c33                           460
    x10       obj1                            1
    x10       c3                            847
    x10       c10                           984
    x10       c29                           355
    x10       c30                           632
    x11       obj1                            1
    x11       c9                            933
    x11       c13                           404
    x11       c30                           478
    x11       c33                           297
    x12       obj1                            1
    x12       c7                            638
    x12       c20                           385
    x12       c21                           500
    x12       c26                           644
    x13       obj1                            1
    x13       c5                            788
    x13       c17                           520
    x14       obj1                            1
    x14       c30                           953
    x15       obj1                            1
    x15       c6                            944
    x15       c10                           653
    x16       obj1                            1
    x16       c6                            901
    x16       c11                           506
    x16       c17                           248
    x16       c18                           741
    x16       c29                           434
    x16       c32                           379
    x17       obj1                            1
    x17       c17                           200
    x17       c22                           671
    x17       c24                           110
    x17       c29                           293
    x18       obj1                            1
    x18       c34                           235
    x19       obj1                            1
    x19       c4                            598
    x19       c6                            131
    x19       c10                           171
    x19       c21                           573
    x19       c35                           679
    x20       obj1                            1
    x20       c33                           450
    x20       c34                           314
    x21       obj1                            1
    x21       c4                            892
    x21       c19                           800
    x21       c26                           877
    x22       obj1                            1
    x22       c1                            471
    x22       c9                            675
    x22       c11                           156
    x22       c18                           986
    x23       obj1                            1
    x23       c1                            795
    x24       obj1                            1
    x24       c8                            102
    x24       c11                           177
    x24       c20                           101
    x24       c24                           380
    x24       c35                           906
    x25       obj1                            1
    x25       c24                           930
    x25       c32                           528
    x26       obj1                            1
    x26       c1                            750
    x26       c5                            558
    x26       c15                           155
    x26       c18                           585
    x26       c24                           339
    x26       c34                           473
    x27       obj1                            1
    x27       c6                            504
    x27       c12                           557
    x27       c29                           324
    x27       c32                           474
    x28       obj1                            1
    x28       c28                           364
    x29       obj1                            1
    x29       c5                            286
    x29       c10                           577
    x29       c17                           914
    x29       c28                           184
    x29       c33                           841
    x30       obj1                            1
    x30       c9                            420
    x30       c12                           461
    x30       c25                           938
    x30       c30                           116
    x30       c31                           505
    x30       c34                           504
    x31       obj1                            1
    x31       c3                            323
    x32       obj1                            1
    x32       c15                           963
    x32       c21                           875
    x33       obj1                            1
    x33       c4                            836
    x33       c5                            695
    x33       c7                            772
    x33       c8                            392
    x34       obj1                            1
    x34       c6                            933
    x34       c13                           250
    x34       c28                           364
    x35       obj1                            1
    x35       c11                           217
    x35       c12                           454
    x35       c15                           115
    x35       c28                           453
    x36       obj1                            1
    x36       c9                            463
    x36       c28                           166
    x36       c30                           229
    x37       obj1                            1
    x37       c14                           251
    x37       c28                           235
    x37       c31                           251
    x37       c33                           638
    x37       c35                           603
    x38       obj1                            1
    x38       c16                           922
    x38       c19                           732
    x38       c21                           880
    x39       obj1                            1
    x39       c7                            381
    x39       c19                           739
    x39       c25                           241
    x40       obj1                            1
    x40       c9                            779
    x40       c29                           210
    x41       obj1                            1
    x41       c4                            383
    x41       c6                            192
    x41       c22                           754
    x41       c23                           867
    x41       c27                           753
    x42       obj1                            1
    x42       c2                            989
    x42       c6                            594
    x42       c11                           866
    x42       c18                           602
    x43       obj1                            1
    x43       c8                            117
    x43       c15                           381
    x44       obj1                            1
    x44       c13                           804
    x44       c29                           433
    x45       obj1                            1
    x45       c35                           106
    x46       obj1                            1
    x46       c5                            979
    x46       c14                           240
    x46       c23                           466
    x47       obj1                            1
    x47       c14                           846
    x47       c26                           863
    x47       c31                           516
    x48       obj1                            1
    x48       c27                           116
    x49       obj1                            1
    x49       c21                           375
    x50       obj1                            1
    x50       c1                            165
    x50       c4                            567
    x50       c9                            133
    x50       c10                           346
    x50       c22                           383
    x50       c27                           338
    x50       c28                           259
    x51       obj1                            1
    x51       c11                           922
    x51       c13                           211
    x51       c14                           158
    x51       c16                           651
    x51       c17                           891
    x51       c34                           354
    x52       obj1                            1
    x52       c11                           883
    x52       c14                           436
    x53       obj1                            1
    x53       c25                           407
    x54       obj1                            1
    x54       c10                           717
    x54       c28                           744
    x54       c30                           207
    x55       obj1                            1
    x55       c1                            585
    x55       c5                            439
    x55       c8                            410
    x55       c31                           888
    x55       c35                           524
    x56       obj1                            1
    x56       c16                           708
    x56       c18                           822
    x56       c29                           862
    x56       c31                           599
    x56       c32                           972
    x57       obj1                            1
    x57       c2                            779
    x58       obj1                            1
    x58       c3                            529
    x58       c4                            736
    x58       c30                           741
    x58       c31                           421
    x59       obj1                            1
    x59       c3                            426
    x59       c10                           777
    x59       c20                           179
    x59       c24                           709
    x59       c25                           843
    x60       obj1                            1
    x60       c4                            793
    x60       c11                           372
    x60       c14                           648
    x60       c23                           899
    x61       obj1                            1
    x61       c8                            553
    x61       c16                           741
    x61       c33                           915
    x62       obj1                            1
    x62       c6                            286
    x62       c9                            547
    x62       c13                           701
    x62       c16                           243
    x62       c19                           753
    x62       c24                           392
    x62       c34                           479
    x63       obj1                            1
    x63       c2                            296
    x63       c11                           409
    x63       c14                           466
    x63       c21                           610
    x63       c24                           868
    x64       obj1                            1
    x64       c10                           476
    x64       c17                           451
    x64       c31                           347
    x64       c33                           439
    x65       obj1                            1
    x65       c3                            117
    x65       c14                           461
    x65       c23                           341
    x65       c31                           850
    x65       c34                           300
    x65       c35                           500
    x66       obj1                            1
    x66       c4                            714
    x67       obj1                            1
    x67       c9                            924
    x67       c14                           535
    x67       c28                           348
    x67       c30                           867
    x68       obj1                            1
    x68       c8                            296
    x68       c15                           314
    x68       c32                           507
    x69       obj1                            1
    x69       c12                           729
    x69       c13                           177
    x69       c19                           789
    x69       c26                           752
    x70       obj1                            1
    x70       c20                           956
    MARK0001  'MARKER'                 'INTEND'
RHS
    rhs       c1                           1953
    rhs       c2                           1386
    rhs       c3                           1560
    rhs       c4                           3081
    rhs       c5                           2251
    rhs       c6                           2433
    rhs       c7                           1640
    rhs       c8                            935
    rhs       c9                           2534
    rhs       c10                          2351
    rhs       c11                          2518
    rhs       c12                          1101
    rhs       c13                          1274
    rhs       c14                          2274
    rhs       c15                           964
    rhs       c16                          1633
    rhs       c17                          2008
    rhs       c18                          1868
    rhs       c19                          1907
    rhs       c20                           811
    rhs       c21                          1907
    rhs       c22                          1276
    rhs       c23                          1287
    rhs       c24                          2289
    rhs       c25                          1215
    rhs       c26                          1942
    rhs       c27                           739
    rhs       c28                          1983
    rhs       c29                          1884
    rhs       c30                          2402
    rhs       c31                          2908
    rhs       c32                          1430
    rhs       c33                          2339
    rhs       c34                          1416
    rhs       c35                          1949
BOUNDS
 LI bnd       x1        0
 LI bnd       x2        0
 LI bnd       x3        0
 LI bnd       x4        0
 LI bnd       x5        0
 LI bnd       x6        0
 LI bnd       x7        0
 LI bnd       x8        0
 LI bnd       x9        0
 LI bnd       x10       0
 LI bnd       x11       0
 LI bnd       x12       0
 LI bnd       x13       0
 LI bnd       x14       0
 LI bnd       x15       0
 LI bnd       x16       0
 LI bnd       x17       0
 LI bnd       x18       0
 LI bnd       x19       0
 LI bnd       x20       0
 LI bnd       x21       0
 LI bnd       x22       0
 LI bnd       x23       0
 LI bnd       x24       0
 LI bnd       x25       0
 LI bnd       x26       0
 LI bnd       x27       0
 LI bnd       x28       0
 LI bnd       x29       0
 LI bnd       x30       0
 LI bnd       x31       0
 LI bnd       x32       0
 LI bnd       x33       0
 LI bnd       x34       0
 LI bnd       x35       0
 LI bnd       x36       0
 LI bnd       x37       0
 LI bnd       x38       0
 LI bnd       x39       0
 LI bnd       x40       0
 LI bnd       x41       0
 LI bnd       x42       0
 LI bnd       x43       0
 LI bnd       x44       0
 LI bnd       x45       0
 LI bnd       x46       0
 LI bnd       x47       0
 LI bnd       x48       0
 LI bnd       x49       0
 LI bnd       x50       0
 LI bnd       x51       0
 LI bnd       x52       0
 LI bnd       x53       0
 LI bnd       x54       0
 LI bnd       x55       0
 LI bnd       x56       0
 LI bnd       x57       0
 LI bnd       x58       0
 LI bnd       x59       0
 LI bnd       x60       0
 LI bnd       x61       0
 LI bnd       x62       0
 LI bnd       x63       0
 LI bnd       x64       0
 LI bnd       x65       0
 LI bnd       x66       0
 LI bnd       x67       0
 LI bnd       x68       0
 LI bnd       x69       0
 LI bnd       x70       0
ENDATA
